10
0 88 56 28 31 38 52 24 68 41
88 0 88 35 33 75 63 69 94 80
56 88 0 51 34 53 24 68 64 52
28 35 51 0 31 69 26 70 56 69
31 33 34 31 0 23 36 51 23 72
38 75 53 69 23 0 33 56 34 46
52 63 24 26 36 33 0 42 70 89
24 69 68 70 51 56 42 0 54 87
68 94 64 56 23 34 70 54 0 32
41 80 52 69 72 46 89 87 32 0
